(set-logic QF_BV)
(declare-fun _substvar_496_ () (_ BitVec 8))
(declare-fun _substvar_150_ () (_ BitVec 8))
(declare-fun _substvar_460_ () (_ BitVec 32))
(declare-fun _substvar_434_ () (_ BitVec 16))
(declare-fun _substvar_502_ () (_ BitVec 16))
(assert (let ( (?v_20 ((_ zero_extend 24) _substvar_150_)) (?v_12 ((_ zero_extend 24) _substvar_496_))) (let ((?v_2 (bvadd (bvadd (_ bv0 32) (_ bv4268253 32)) ((_ zero_extend 16) _substvar_434_)))) (let ((?v_4 (bvadd ?v_2 (_ bv6 32)))) (let ((?v_6 (bvadd (bvadd ?v_4 (_ bv0 32)) (_ bv2 32)))) (let ((?v_5 (bvadd ?v_6 ((_ zero_extend 16) _substvar_502_)))) (let ((?v_8 (bvadd ?v_5 (_ bv6 32)))) (let ((?v_9 (bvadd ?v_8 (bvadd _substvar_460_ (_ bv1 32))))) (let ((?v_11 (bvadd ?v_9 (_ bv2 32)))) (let ((?v_10 (bvadd ?v_11 ?v_12))) (let ((?v_14 (bvadd (bvadd ?v_10 (_ bv1 32)) (_ bv0 32)))) (let ((?v_19 (bvadd (bvadd ?v_14 (_ bv1 32)) (_ bv0 32)))) (let ((?v_24 (bvadd (bvadd ?v_19 (_ bv1 32)) ?v_20))) (let ((?v_25 (bvadd (bvadd ?v_24 (_ bv1 32)) (_ bv0 32)))) (and true true true true (bvsle (_ bv1040 32) (bvsub ?v_25 (_ bv4268071 32))) true true true true true true true true (= _substvar_460_ (_ bv1 32)) true true true true true true true true true true true (bvule (bvadd ?v_19 (_ bv2 32)) (_ bv4269078 32)) true true true true true true (bvule (bvadd ?v_25 (_ bv2 32)) (_ bv4269078 32)))))))))))))))))
(check-sat)
(exit)
